
Welcome to IBM(R) ILOG(R) CPLEX(R) Interactive Optimizer 22.1.1.0
  with Simplex, Mixed Integer & Barrier Optimizers
5725-A06 5725-A29 5724-Y48 5724-Y49 5724-Y54 5724-Y55 5655-Y21
Copyright IBM Corp. 1988, 2022.  All Rights Reserved.

Type 'help' for a list of available commands.
Type 'help' followed by a command name for more
information on commands.

CPLEX> Selected objective sense:  MINIMIZE
Selected objective  name:  00000000
Selected RHS        name:  RHS1
Selected bound      name:  BOUND
Problem 'ee.mps' read.
Read time = 0.02 sec. (3.17 ticks)
CPLEX> New value for time limit in seconds: 7200
CPLEX> New value for parallel optimization mode: -1
CPLEX> New value for default parallel thread count: 40
CPLEX> New value for mixed integer optimality gap tolerance: 1e-13
CPLEX> Version identifier: 22.1.1.0 | 2022-11-28 | 9160aff4d
CPXPARAM_Threads                                 40
CPXPARAM_Parallel                                -1
CPXPARAM_TimeLimit                               7200
CPXPARAM_MIP_Tolerances_MIPGap                   1e-13
Found incumbent of value 0.000000 after 0.00 sec. (0.31 ticks)
Tried aggregator 3 times.
MIP Presolve eliminated 759 rows and 3849 columns.
MIP Presolve modified 5787 coefficients.
Aggregator did 629 substitutions.
Reduced MIP has 3145 rows, 6849 columns, and 24832 nonzeros.
Reduced MIP has 6849 binaries, 0 generals, 0 SOSs, and 0 indicators.
Presolve time = 0.07 sec. (75.36 ticks)
Probing fixed 52 vars, tightened 0 bounds.
Probing time = 0.06 sec. (24.67 ticks)
Tried aggregator 2 times.
Detecting symmetries...
MIP Presolve eliminated 7 rows and 60 columns.
Aggregator did 10 substitutions.
Reduced MIP has 3128 rows, 6776 columns, and 24567 nonzeros.
Reduced MIP has 6776 binaries, 0 generals, 0 SOSs, and 0 indicators.
Presolve time = 0.03 sec. (35.75 ticks)
Probing time = 0.03 sec. (8.34 ticks)
Clique table members: 16190.
MIP emphasis: balance optimality and feasibility.
MIP search method: dynamic search.
Parallel mode: opportunistic, using up to 40 threads.
Root relaxation solution time = 0.11 sec. (93.31 ticks)

        Nodes                                         Cuts/
   Node  Left     Objective  IInf  Best Integer    Best Bound    ItCnt     Gap

*     0+    0                            0.0000  -1.54000e+13              --- 
*     0+    0                      -3.60000e+12  -1.54000e+13           327.78%
*     0+    0                      -4.80000e+12  -1.54000e+13           220.83%
*     0+    0                      -5.79000e+12  -1.54000e+13           165.98%
*     0+    0                      -6.00000e+12  -1.54000e+13           156.67%
*     0+    0                      -6.00000e+12  -1.54000e+13           156.67%
*     0+    0                      -7.20000e+12  -1.54000e+13           113.89%
      0     0  -1.53900e+13    64  -7.20000e+12  -1.53900e+13     2169  113.75%
*     0+    0                      -1.53900e+13  -1.53900e+13             0.00%
      0     0  -1.53900e+13   152  -1.53900e+13      Cuts: 80     2452    0.00%
*     0+    0                      -1.53900e+13  -1.53900e+13             0.00%
*     0+    0                      -1.53900e+13  -1.53900e+13             0.00%
      0     0  -1.53900e+13   193  -1.53900e+13      Cuts: 64     2729    0.00%
*     0+    0                      -1.53900e+13  -1.53900e+13             0.00%

Repeating presolve.
Tried aggregator 2 times.
MIP Presolve eliminated 2259 rows and 5283 columns.
MIP Presolve added 4 rows and 0 columns.
MIP Presolve modified 30 coefficients.
Aggregator did 454 substitutions.
Reduced MIP has 419 rows, 991 columns, and 3360 nonzeros.
Reduced MIP has 991 binaries, 0 generals, 0 SOSs, and 0 indicators.
Presolve time = 0.02 sec. (17.10 ticks)
Probing fixed 2 vars, tightened 0 bounds.
Probing time = 0.00 sec. (2.04 ticks)
Tried aggregator 1 time.
Detecting symmetries...
MIP Presolve eliminated 0 rows and 2 columns.
Reduced MIP has 419 rows, 989 columns, and 3352 nonzeros.
Reduced MIP has 989 binaries, 0 generals, 0 SOSs, and 0 indicators.
Presolve time = 0.00 sec. (2.34 ticks)
Represolve time = 0.03 sec. (34.69 ticks)
Probing time = 0.00 sec. (1.94 ticks)
Clique table members: 2305.
MIP emphasis: balance optimality and feasibility.
MIP search method: dynamic search.
Parallel mode: opportunistic, using up to 40 threads.
Root relaxation solution time = 0.01 sec. (13.18 ticks)

        Nodes                                         Cuts/
   Node  Left     Objective  IInf  Best Integer    Best Bound    ItCnt     Gap

*     0+    0                      -1.53900e+13  -1.53900e+13             0.00%
      0     0  -1.53900e+13    75  -1.53900e+13  -1.53900e+13     3328    0.00%
      0     0  -1.53900e+13   105  -1.53900e+13      Cuts: 59     3442    0.00%
      0     0  -1.53900e+13   125  -1.53900e+13      Cuts: 41     3585    0.00%

Repeating presolve.
Tried aggregator 2 times.
MIP Presolve eliminated 101 rows and 329 columns.
MIP Presolve modified 7 coefficients.
Aggregator did 37 substitutions.
Reduced MIP has 281 rows, 617 columns, and 2049 nonzeros.
Reduced MIP has 617 binaries, 0 generals, 0 SOSs, and 0 indicators.
Presolve time = 0.00 sec. (3.22 ticks)
Probing time = 0.00 sec. (0.57 ticks)
Tried aggregator 1 time.
Detecting symmetries...
Reduced MIP has 281 rows, 617 columns, and 2049 nonzeros.
Reduced MIP has 617 binaries, 0 generals, 0 SOSs, and 0 indicators.
Presolve time = 0.00 sec. (1.43 ticks)
Represolve time = 0.01 sec. (12.40 ticks)
Probing time = 0.00 sec. (0.57 ticks)
Clique table members: 818.
MIP emphasis: balance optimality and feasibility.
MIP search method: dynamic search.
Parallel mode: opportunistic, using up to 40 threads.
Root relaxation solution time = 0.01 sec. (8.50 ticks)

        Nodes                                         Cuts/
   Node  Left     Objective  IInf  Best Integer    Best Bound    ItCnt     Gap

*     0+    0                      -1.53900e+13  -1.53900e+13             0.00%
      0     0  -1.53900e+13   121  -1.53900e+13  -1.53900e+13     4039    0.00%
      0     0  -1.53900e+13    61  -1.53900e+13     Cuts: 102     4221    0.00%
      0     0  -1.53900e+13    28  -1.53900e+13      Cuts: 41     4260    0.00%
      0     0  -1.53900e+13    74  -1.53900e+13      Cuts: 30     4317    0.00%
      0     0        cutoff        -1.53900e+13                   4323    0.00%
Elapsed time = 0.88 sec. (758.61 ticks, tree = 0.01 MB, solutions = 11)

Clique cuts applied:  61
Cover cuts applied:  32
Implied bound cuts applied:  5
Flow cuts applied:  7
Mixed integer rounding cuts applied:  21
Zero-half cuts applied:  19
Lift and project cuts applied:  14
Gomory fractional cuts applied:  16

Root node processing (before b&c):
  Real time             =    0.88 sec. (759.71 ticks)
Parallel b&c, 40 threads:
  Real time             =    0.00 sec. (0.00 ticks)
  Sync time (average)   =    0.00 sec.
  Wait time (average)   =    0.00 sec.
                          ------------
Total (root+branch&cut) =    0.88 sec. (759.71 ticks)

Solution pool: 11 solutions saved.

MIP - Integer optimal solution:  Objective = -1.5389998689e+13
Solution time =    0.91 sec.  Iterations = 4323  Nodes = 0
Deterministic time = 759.75 ticks  (832.00 ticks/sec)

CPLEX> Solution 'p12' written to file 'ee.sol'.
CPLEX> 